decision_x1=[0,7];
decision_x2=[0,7];
decision_x3=[0,7];
decision_x4=[0,7];
decision_x5=[0,7];
decision_x6=[0,7];
decision_x7=[0,7];
decision_x8=[0,7];
decision_x9=[0,7];
decision_x10=[0,7];
decision_x11=[0,7];
decision_x12=[0,7];
decision_x13=[0,7];
decision_x14=[0,7];
random_y1=[0,7];
random_y2=[0,7];
random_y3=[0,7];
random_y4=[0,7];
random_y5=[0,7];
random_y6=[0,7];
constraint_x2_x1=[
0,0,3.6|
0,1,7|
0,2,9.9|
0,3,6.3|
0,4,0.28|
0,5,4.3|
0,6,8.9|
0,7,3.8|
1,0,6.1|
1,1,0.81|
1,2,8.7|
1,3,3|
1,4,2.4|
1,5,6.4|
1,6,9.4|
1,7,3.7|
2,0,6|
2,1,8.6|
2,2,2|
2,3,2.4|
2,4,4.9|
2,5,3.3|
2,6,3.7|
2,7,7.2|
3,0,4.2|
3,1,1.1|
3,2,6.1|
3,3,7.9|
3,4,9.4|
3,5,4.9|
3,6,3.7|
3,7,0.31|
4,0,0.81|
4,1,8.2|
4,2,1.7|
4,3,9.4|
4,4,2.6|
4,5,4|
4,6,9.4|
4,7,6.8|
5,0,4.8|
5,1,3.9|
5,2,0.16|
5,3,8.3|
5,4,7.2|
5,5,4.3|
5,6,8.2|
5,7,7.8|
6,0,6.5|
6,1,4.5|
6,2,9.6|
6,3,2.3|
6,4,7.9|
6,5,1.7|
6,6,5.1|
6,7,9.9|
7,0,5.3|
7,1,8.9|
7,2,9.2|
7,3,9|
7,4,3.2|
7,5,2|
7,6,8.7|
7,7,1.7|
];
constraint_x3_x2=[
0,0,9.1|
0,1,8.1|
0,2,4.8|
0,3,3.3|
0,4,4.6|
0,5,9.6|
0,6,1.5|
0,7,9.5|
1,0,1.5|
1,1,3.5|
1,2,3.9|
1,3,0.79|
1,4,0.67|
1,5,8|
1,6,4.3|
1,7,5.8|
2,0,8.8|
2,1,6.6|
2,2,4.6|
2,3,4.1|
2,4,0.22|
2,5,5.6|
2,6,0.57|
2,7,0.4|
3,0,4.8|
3,1,1.2|
3,2,7.8|
3,3,3.9|
3,4,5.3|
3,5,5.1|
3,6,9|
3,7,4.9|
4,0,4.1|
4,1,5.1|
4,2,6.9|
4,3,4.2|
4,4,4.2|
4,5,4.7|
4,6,9.9|
4,7,7.9|
5,0,5.2|
5,1,0.77|
5,2,0.5|
5,3,7.4|
5,4,0.32|
5,5,8.9|
5,6,2.8|
5,7,1.5|
6,0,9.1|
6,1,0.49|
6,2,0.099|
6,3,0.96|
6,4,3.1|
6,5,3.2|
6,6,1.6|
6,7,4.1|
7,0,7.2|
7,1,0.29|
7,2,7.3|
7,3,7.3|
7,4,9.7|
7,5,6.6|
7,6,4|
7,7,2.5|
];
constraint_x4_x3=[
0,0,7.2|
0,1,5.5|
0,2,7.4|
0,3,8.2|
0,4,4.8|
0,5,8.7|
0,6,6.3|
0,7,1.5|
1,0,0.58|
1,1,6.3|
1,2,0.58|
1,3,6.1|
1,4,0.32|
1,5,9.1|
1,6,7.8|
1,7,7.5|
2,0,1.1|
2,1,6.9|
2,2,7.2|
2,3,2.7|
2,4,8.8|
2,5,9.1|
2,6,7.5|
2,7,7.2|
3,0,0.25|
3,1,4.7|
3,2,0.52|
3,3,2|
3,4,8.2|
3,5,4.7|
3,6,2.8|
3,7,5.1|
4,0,7.7|
4,1,0.25|
4,2,6.9|
4,3,9.2|
4,4,10|
4,5,8.9|
4,6,6.8|
4,7,2.3|
5,0,4.5|
5,1,4.8|
5,2,9.9|
5,3,7|
5,4,3.7|
5,5,2.4|
5,6,6.8|
5,7,2.9|
6,0,5|
6,1,0.63|
6,2,0.77|
6,3,8.9|
6,4,3.5|
6,5,9.9|
6,6,0.69|
6,7,5.5|
7,0,4.7|
7,1,7.9|
7,2,0.089|
7,3,5.9|
7,4,7.9|
7,5,7.2|
7,6,9.4|
7,7,0.2|
];
constraint_x5_x1=[
0,0,3.2|
0,1,1.3|
0,2,4.4|
0,3,0.27|
0,4,9.7|
0,5,1.4|
0,6,9|
0,7,8.2|
1,0,3|
1,1,0.96|
1,2,9.9|
1,3,4.4|
1,4,7.6|
1,5,1.1|
1,6,8.7|
1,7,9.9|
2,0,6.4|
2,1,5.2|
2,2,0.051|
2,3,6.6|
2,4,0.94|
2,5,6.7|
2,6,1.2|
2,7,3.4|
3,0,0.45|
3,1,3.6|
3,2,9.2|
3,3,8.8|
3,4,2.2|
3,5,6.5|
3,6,4.8|
3,7,5.9|
4,0,4.3|
4,1,5.9|
4,2,0.54|
4,3,5.3|
4,4,0.16|
4,5,1.2|
4,6,8.4|
4,7,4.3|
5,0,0.17|
5,1,4.1|
5,2,6.7|
5,3,7.1|
5,4,5.2|
5,5,7.5|
5,6,8.5|
5,7,7.1|
6,0,9|
6,1,1.6|
6,2,0.36|
6,3,5.9|
6,4,8.2|
6,5,8.2|
6,6,8.8|
6,7,2.6|
7,0,3|
7,1,6.6|
7,2,1.5|
7,3,8.9|
7,4,8.3|
7,5,9.5|
7,6,0.37|
7,7,1.1|
];
constraint_x6_x2=[
0,0,1.4|
0,1,5.6|
0,2,8.9|
0,3,2.3|
0,4,7.5|
0,5,7.3|
0,6,4.3|
0,7,9.9|
1,0,2.7|
1,1,4.3|
1,2,8.6|
1,3,6.3|
1,4,7.4|
1,5,5.1|
1,6,9.2|
1,7,6.1|
2,0,8.6|
2,1,4.2|
2,2,3.6|
2,3,9.8|
2,4,5.4|
2,5,4.1|
2,6,4.1|
2,7,0.46|
3,0,0.1|
3,1,7.7|
3,2,2.5|
3,3,5.5|
3,4,8.2|
3,5,9.8|
3,6,4.7|
3,7,5.4|
4,0,7.9|
4,1,7.3|
4,2,5.1|
4,3,3.1|
4,4,1.6|
4,5,6|
4,6,3|
4,7,5.7|
5,0,0.32|
5,1,2.8|
5,2,2|
5,3,2.2|
5,4,7.9|
5,5,6.6|
5,6,2.2|
5,7,5.7|
6,0,8.7|
6,1,6.2|
6,2,4.7|
6,3,0.23|
6,4,3.9|
6,5,3.7|
6,6,7.2|
6,7,9.3|
7,0,1.6|
7,1,4.3|
7,2,0.3|
7,3,4.1|
7,4,7|
7,5,9.1|
7,6,9.1|
7,7,1.6|
];
constraint_x6_x5=[
0,0,0.9|
0,1,7.8|
0,2,1.3|
0,3,6.8|
0,4,0.19|
0,5,1.6|
0,6,1.9|
0,7,0.97|
1,0,0.24|
1,1,1.2|
1,2,8.5|
1,3,2.2|
1,4,8|
1,5,5.5|
1,6,6.4|
1,7,2.1|
2,0,6.9|
2,1,7.3|
2,2,4.4|
2,3,3.5|
2,4,4.2|
2,5,9.9|
2,6,6.4|
2,7,4.9|
3,0,0.67|
3,1,6.8|
3,2,4.6|
3,3,9.3|
3,4,9.5|
3,5,0.63|
3,6,8.7|
3,7,4|
4,0,0.86|
4,1,9.6|
4,2,1.6|
4,3,7.1|
4,4,6.9|
4,5,2.3|
4,6,1.4|
4,7,8.9|
5,0,1.5|
5,1,0.21|
5,2,3|
5,3,0.37|
5,4,6.7|
5,5,0.1|
5,6,0.15|
5,7,5.5|
6,0,7.3|
6,1,8.5|
6,2,7.8|
6,3,5.3|
6,4,6.5|
6,5,3.3|
6,6,3.9|
6,7,9.5|
7,0,5.1|
7,1,3.1|
7,2,9.2|
7,3,2.1|
7,4,8.4|
7,5,3.3|
7,6,0.77|
7,7,1.4|
];
constraint_x7_x3=[
0,0,8.4|
0,1,7.9|
0,2,5|
0,3,2.1|
0,4,5.7|
0,5,7.8|
0,6,4.8|
0,7,4.5|
1,0,1.9|
1,1,2.4|
1,2,1.1|
1,3,9.9|
1,4,7.9|
1,5,3.2|
1,6,1.4|
1,7,7.2|
2,0,4.3|
2,1,2.6|
2,2,8.3|
2,3,6.2|
2,4,8.9|
2,5,2.1|
2,6,8.6|
2,7,5.3|
3,0,7.5|
3,1,4|
3,2,6.7|
3,3,7.1|
3,4,3.7|
3,5,8.7|
3,6,7.8|
3,7,6.1|
4,0,8.4|
4,1,9.7|
4,2,6.6|
4,3,8.5|
4,4,3.8|
4,5,7.6|
4,6,6.2|
4,7,5.4|
5,0,2.8|
5,1,0.83|
5,2,0.021|
5,3,5.6|
5,4,9.3|
5,5,6.3|
5,6,5.6|
5,7,3.2|
6,0,9.9|
6,1,1.5|
6,2,1.8|
6,3,7.2|
6,4,6.5|
6,5,7.6|
6,6,8.5|
6,7,5.4|
7,0,5.3|
7,1,3.2|
7,2,3.4|
7,3,10|
7,4,0.094|
7,5,6.2|
7,6,7.9|
7,7,8.4|
];
constraint_x7_x6=[
0,0,3.2|
0,1,2|
0,2,9.5|
0,3,8.6|
0,4,6.6|
0,5,5.5|
0,6,2|
0,7,0.8|
1,0,1.9|
1,1,2.1|
1,2,3.9|
1,3,6.5|
1,4,0.6|
1,5,2.7|
1,6,0.54|
1,7,6.6|
2,0,5.4|
2,1,0.5|
2,2,4.6|
2,3,6.7|
2,4,7|
2,5,4.3|
2,6,1.2|
2,7,7|
3,0,8|
3,1,0.22|
3,2,4.5|
3,3,1.8|
3,4,2.5|
3,5,6.5|
3,6,3.9|
3,7,6.4|
4,0,1.9|
4,1,1.3|
4,2,0.37|
4,3,9.9|
4,4,5.5|
4,5,5.3|
4,6,7.3|
4,7,6.7|
5,0,0.87|
5,1,1.4|
5,2,5.5|
5,3,7.4|
5,4,8.8|
5,5,9|
5,6,2.9|
5,7,6.7|
6,0,8.7|
6,1,5.4|
6,2,8.4|
6,3,8.8|
6,4,7|
6,5,0.084|
6,6,5.6|
6,7,7.6|
7,0,9|
7,1,5.2|
7,2,6.8|
7,3,1.1|
7,4,1.2|
7,5,6.9|
7,6,4|
7,7,4.3|
];
constraint_x8_x4=[
0,0,4.6|
0,1,6.5|
0,2,8.9|
0,3,7.1|
0,4,4.8|
0,5,2.8|
0,6,4.8|
0,7,6.5|
1,0,7.9|
1,1,9.2|
1,2,6.1|
1,3,7.1|
1,4,5.7|
1,5,9.8|
1,6,6.1|
1,7,8.8|
2,0,1.6|
2,1,4.4|
2,2,8|
2,3,8.9|
2,4,0.92|
2,5,8.7|
2,6,9.1|
2,7,0.8|
3,0,2.1|
3,1,8.3|
3,2,8.3|
3,3,0.19|
3,4,1.7|
3,5,2.6|
3,6,0.72|
3,7,9.1|
4,0,8.2|
4,1,2.9|
4,2,0.14|
4,3,0.31|
4,4,4.1|
4,5,1.9|
4,6,1.6|
4,7,0.87|
5,0,2.7|
5,1,9.9|
5,2,4.8|
5,3,2|
5,4,5.9|
5,5,6.1|
5,6,8.1|
5,7,0.78|
6,0,1.5|
6,1,2.2|
6,2,4|
6,3,2|
6,4,2.4|
6,5,9.2|
6,6,5.8|
6,7,0.86|
7,0,8.7|
7,1,6.9|
7,2,4|
7,3,1.6|
7,4,6.8|
7,5,0.78|
7,6,0.36|
7,7,9.3|
];
constraint_x8_x7=[
0,0,6.8|
0,1,7.5|
0,2,4.3|
0,3,5.9|
0,4,1.5|
0,5,9.6|
0,6,7.5|
0,7,3.5|
1,0,4.5|
1,1,5.3|
1,2,0.97|
1,3,5.5|
1,4,7.2|
1,5,3.3|
1,6,6.7|
1,7,9.8|
2,0,8.5|
2,1,9.4|
2,2,8|
2,3,6.5|
2,4,0.87|
2,5,4.7|
2,6,2.9|
2,7,1.9|
3,0,6.2|
3,1,4.7|
3,2,0.79|
3,3,3.1|
3,4,5.1|
3,5,1|
3,6,7.7|
3,7,9.3|
4,0,7.3|
4,1,4.6|
4,2,1.5|
4,3,6.8|
4,4,8.4|
4,5,2.4|
4,6,1.1|
4,7,1.4|
5,0,3.3|
5,1,0.6|
5,2,2.3|
5,3,4.6|
5,4,9.4|
5,5,9.9|
5,6,9.3|
5,7,1.4|
6,0,9.6|
6,1,3|
6,2,7.2|
6,3,0.56|
6,4,6.4|
6,5,7.1|
6,6,5.8|
6,7,9.8|
7,0,2.4|
7,1,8.4|
7,2,3|
7,3,1.4|
7,4,0.63|
7,5,8.6|
7,6,3.6|
7,7,8.4|
];
constraint_x9_x5=[
0,0,1.5|
0,1,8.4|
0,2,9.2|
0,3,1.7|
0,4,0.16|
0,5,1.2|
0,6,9.8|
0,7,1.3|
1,0,9.9|
1,1,4|
1,2,7.1|
1,3,9.4|
1,4,8.8|
1,5,2.9|
1,6,9.2|
1,7,5.9|
2,0,0.81|
2,1,9.9|
2,2,2.2|
2,3,3.5|
2,4,1.2|
2,5,7.8|
2,6,6.5|
2,7,2.1|
3,0,8.7|
3,1,6.2|
3,2,2.3|
3,3,9.5|
3,4,4|
3,5,10|
3,6,2.4|
3,7,5.8|
4,0,3.5|
4,1,8.1|
4,2,4.5|
4,3,4.3|
4,4,3.3|
4,5,9.5|
4,6,6.5|
4,7,7.8|
5,0,7.3|
5,1,2.9|
5,2,6.8|
5,3,6.2|
5,4,7.4|
5,5,6|
5,6,0.86|
5,7,7.8|
6,0,4.3|
6,1,2.4|
6,2,8.2|
6,3,0.78|
6,4,4.7|
6,5,2.6|
6,6,0.84|
6,7,10|
7,0,3.9|
7,1,4.7|
7,2,1.1|
7,3,3.2|
7,4,8.5|
7,5,8.3|
7,6,1.9|
7,7,9.2|
];
constraint_x10_x6=[
0,0,2.3|
0,1,7.9|
0,2,3.8|
0,3,2|
0,4,4.3|
0,5,2.8|
0,6,9.5|
0,7,8.8|
1,0,5.6|
1,1,0.42|
1,2,3|
1,3,8.8|
1,4,1.9|
1,5,3.2|
1,6,4.7|
1,7,2|
2,0,4|
2,1,6.3|
2,2,6.1|
2,3,8.3|
2,4,9.5|
2,5,9.6|
2,6,2.8|
2,7,4.8|
3,0,9.1|
3,1,7.4|
3,2,5.9|
3,3,0.17|
3,4,6.4|
3,5,2.2|
3,6,2.2|
3,7,9.8|
4,0,8|
4,1,7|
4,2,5.8|
4,3,1.4|
4,4,3.5|
4,5,9.6|
4,6,7.1|
4,7,10|
5,0,2.1|
5,1,5.1|
5,2,8.9|
5,3,0.3|
5,4,2.3|
5,5,2|
5,6,2.5|
5,7,6.5|
6,0,3.4|
6,1,9.9|
6,2,3.4|
6,3,3.5|
6,4,7.2|
6,5,3.5|
6,6,3.6|
6,7,3.9|
7,0,7.7|
7,1,9.2|
7,2,9.6|
7,3,0.0042|
7,4,7.2|
7,5,4|
7,6,0.67|
7,7,9.3|
];
constraint_x11_x7=[
0,0,5.8|
0,1,8.7|
0,2,1.6|
0,3,3.7|
0,4,8|
0,5,5.7|
0,6,7.3|
0,7,7.7|
1,0,7.9|
1,1,3.2|
1,2,5.1|
1,3,5.4|
1,4,7.4|
1,5,1.4|
1,6,5.4|
1,7,0.34|
2,0,5.5|
2,1,7.7|
2,2,9.8|
2,3,8.4|
2,4,6|
2,5,10|
2,6,7.6|
2,7,8.5|
3,0,0.42|
3,1,4.5|
3,2,8.1|
3,3,0.73|
3,4,5.5|
3,5,6.7|
3,6,5.4|
3,7,7.5|
4,0,4.2|
4,1,6.6|
4,2,0.13|
4,3,4.3|
4,4,2.2|
4,5,0.55|
4,6,1.2|
4,7,3.9|
5,0,1.5|
5,1,2.4|
5,2,5.4|
5,3,5.6|
5,4,8.8|
5,5,0.72|
5,6,3.3|
5,7,2.1|
6,0,2.5|
6,1,6|
6,2,8.6|
6,3,1.6|
6,4,9|
6,5,8.3|
6,6,2.4|
6,7,6.8|
7,0,0.5|
7,1,1.5|
7,2,5.2|
7,3,8.2|
7,4,6.7|
7,5,9.8|
7,6,7.8|
7,7,0.32|
];
constraint_x12_x8=[
0,0,3|
0,1,7|
0,2,7.5|
0,3,7.3|
0,4,4.2|
0,5,8.5|
0,6,4.5|
0,7,6.4|
1,0,7.7|
1,1,1.7|
1,2,0.24|
1,3,1.8|
1,4,9.5|
1,5,7|
1,6,8.4|
1,7,6.5|
2,0,5.5|
2,1,8.9|
2,2,9.3|
2,3,2.8|
2,4,9|
2,5,3|
2,6,7.4|
2,7,0.67|
3,0,7.8|
3,1,4.9|
3,2,3|
3,3,5.7|
3,4,2.2|
3,5,0.45|
3,6,5.4|
3,7,7|
4,0,0.77|
4,1,0.41|
4,2,0.28|
4,3,4.5|
4,4,7.8|
4,5,4.9|
4,6,1.2|
4,7,7.7|
5,0,3|
5,1,5.7|
5,2,5.9|
5,3,1.4|
5,4,4.3|
5,5,5.2|
5,6,7|
5,7,1.2|
6,0,8.8|
6,1,3.9|
6,2,6.5|
6,3,7.1|
6,4,5.9|
6,5,1.6|
6,6,0.082|
6,7,3.4|
7,0,4.6|
7,1,1.7|
7,2,5.5|
7,3,8.7|
7,4,6.8|
7,5,0.17|
7,6,9.4|
7,7,0.91|
];
constraint_x13_x9=[
0,0,1.7|
0,1,0.49|
0,2,4.8|
0,3,6.1|
0,4,6.8|
0,5,9.1|
0,6,4|
0,7,5.2|
1,0,9.3|
1,1,4.6|
1,2,8.6|
1,3,3.7|
1,4,6.7|
1,5,7.6|
1,6,0.49|
1,7,2.2|
2,0,1.4|
2,1,8.1|
2,2,3.1|
2,3,9.8|
2,4,1|
2,5,9.7|
2,6,8.6|
2,7,1.2|
3,0,6.6|
3,1,9.1|
3,2,7.9|
3,3,4.7|
3,4,0.84|
3,5,0.43|
3,6,8.5|
3,7,8.1|
4,0,9.5|
4,1,3.6|
4,2,6.4|
4,3,4.4|
4,4,2.3|
4,5,1.1|
4,6,7.2|
4,7,2.7|
5,0,9.8|
5,1,0.69|
5,2,7.5|
5,3,1.6|
5,4,4.7|
5,5,8.4|
5,6,2.1|
5,7,5.9|
6,0,1.9|
6,1,8.4|
6,2,7.7|
6,3,3.3|
6,4,7.6|
6,5,6.2|
6,6,8.2|
6,7,3.9|
7,0,3.5|
7,1,0.73|
7,2,3.6|
7,3,2.5|
7,4,4.3|
7,5,4.3|
7,6,3.9|
7,7,6|
];
constraint_x14_x10=[
0,0,4.5|
0,1,2|
0,2,5.2|
0,3,3.6|
0,4,7.1|
0,5,6.8|
0,6,6.7|
0,7,6|
1,0,0.72|
1,1,4|
1,2,3.3|
1,3,0.49|
1,4,4.6|
1,5,0.21|
1,6,2.3|
1,7,0.74|
2,0,2.3|
2,1,2|
2,2,9.1|
2,3,6.7|
2,4,1.9|
2,5,3.6|
2,6,9.9|
2,7,0.51|
3,0,2.1|
3,1,1.8|
3,2,7|
3,3,2.4|
3,4,0.8|
3,5,3.9|
3,6,4.6|
3,7,3.7|
4,0,4.4|
4,1,6.3|
4,2,5.9|
4,3,2.6|
4,4,4.4|
4,5,4.8|
4,6,1.6|
4,7,3.5|
5,0,7.6|
5,1,2.8|
5,2,5.9|
5,3,5.9|
5,4,8.5|
5,5,3.8|
5,6,5.3|
5,7,3.5|
6,0,1.2|
6,1,4|
6,2,6.9|
6,3,9.7|
6,4,4|
6,5,3.8|
6,6,1.1|
6,7,4.5|
7,0,6.6|
7,1,9.6|
7,2,9.2|
7,3,7.3|
7,4,2.4|
7,5,9|
7,6,2.6|
7,7,7.3|
];
constraint_x1_y1=[
0,0,2.4|
0,1,0.41|
0,2,6.1|
0,3,8.1|
0,4,7.2|
0,5,0.88|
0,6,3|
0,7,2.9|
1,0,1.7|
1,1,0.88|
1,2,3.8|
1,3,1.2|
1,4,4.4|
1,5,2.1|
1,6,8.7|
1,7,1.8|
2,0,7.5|
2,1,4.7|
2,2,9.5|
2,3,1.2|
2,4,0.74|
2,5,2.1|
2,6,6.1|
2,7,1.4|
3,0,3.7|
3,1,4.5|
3,2,4.2|
3,3,9.2|
3,4,1.6|
3,5,2.4|
3,6,5.3|
3,7,8.8|
4,0,1.3|
4,1,4.3|
4,2,6.1|
4,3,4.2|
4,4,0.99|
4,5,5.1|
4,6,1.2|
4,7,4.6|
5,0,1.4|
5,1,7.9|
5,2,9.4|
5,3,9.7|
5,4,0.65|
5,5,1.2|
5,6,3.9|
5,7,2.3|
6,0,1.9|
6,1,9|
6,2,7.7|
6,3,3.7|
6,4,4.1|
6,5,4.9|
6,6,3.5|
6,7,7.3|
7,0,7.5|
7,1,8.6|
7,2,4.5|
7,3,3.4|
7,4,5.5|
7,5,5.1|
7,6,0.69|
7,7,9.5|
];
constraint_x2_y2=[
0,0,9|
0,1,4.9|
0,2,8.1|
0,3,8.4|
0,4,9.2|
0,5,1.5|
0,6,6.5|
0,7,8.7|
1,0,4.4|
1,1,0.68|
1,2,8.8|
1,3,5.2|
1,4,5.6|
1,5,0.69|
1,6,9.4|
1,7,8|
2,0,0.89|
2,1,8.7|
2,2,7.5|
2,3,0.093|
2,4,8.1|
2,5,2.4|
2,6,0.94|
2,7,2.8|
3,0,0.23|
3,1,1.4|
3,2,1.3|
3,3,9.5|
3,4,9.5|
3,5,5.6|
3,6,2.3|
3,7,9.2|
4,0,5.5|
4,1,0.021|
4,2,9.6|
4,3,1.8|
4,4,0.98|
4,5,10|
4,6,5.2|
4,7,1.3|
5,0,7.7|
5,1,7.2|
5,2,1.4|
5,3,9|
5,4,7.7|
5,5,5.1|
5,6,9.9|
5,7,4.2|
6,0,0.24|
6,1,4.3|
6,2,5.1|
6,3,8.1|
6,4,7.3|
6,5,7.8|
6,6,1.2|
6,7,4.4|
7,0,1.3|
7,1,1.2|
7,2,3.2|
7,3,3.9|
7,4,7.5|
7,5,1.6|
7,6,2.3|
7,7,4.7|
];
constraint_x3_y3=[
0,0,3.1|
0,1,0.035|
0,2,9.3|
0,3,2.2|
0,4,8.9|
0,5,0.43|
0,6,5.4|
0,7,6.4|
1,0,1.5|
1,1,8|
1,2,3.9|
1,3,4|
1,4,9.3|
1,5,2.1|
1,6,2.1|
1,7,9.4|
2,0,1.5|
2,1,8.9|
2,2,9.2|
2,3,2|
2,4,1.1|
2,5,1.6|
2,6,6.3|
2,7,8.1|
3,0,3.8|
3,1,7|
3,2,5.4|
3,3,1.3|
3,4,6.2|
3,5,1.3|
3,6,6.8|
3,7,6.5|
4,0,7.9|
4,1,0.83|
4,2,5.9|
4,3,7.6|
4,4,4.3|
4,5,9.2|
4,6,5.7|
4,7,4.8|
5,0,1.8|
5,1,2|
5,2,7.5|
5,3,4.4|
5,4,6|
5,5,2|
5,6,2.8|
5,7,5.8|
6,0,1.5|
6,1,8.2|
6,2,0.4|
6,3,9.4|
6,4,2.8|
6,5,3.7|
6,6,3.5|
6,7,3.2|
7,0,6.7|
7,1,0.19|
7,2,2.5|
7,3,4.5|
7,4,9.8|
7,5,7.4|
7,6,7.2|
7,7,3.8|
];
constraint_x4_y4=[
0,0,6.1|
0,1,0.12|
0,2,4.5|
0,3,3.2|
0,4,7.9|
0,5,8.9|
0,6,4.7|
0,7,3.6|
1,0,6.5|
1,1,5.2|
1,2,3.3|
1,3,6.2|
1,4,6.7|
1,5,1|
1,6,2.4|
1,7,1.5|
2,0,0.83|
2,1,3|
2,2,5.2|
2,3,7.9|
2,4,4.6|
2,5,9.8|
2,6,8.6|
2,7,7.6|
3,0,0.48|
3,1,9.7|
3,2,2.4|
3,3,9.3|
3,4,4.5|
3,5,8.2|
3,6,0.36|
3,7,3.6|
4,0,0.3|
4,1,6.4|
4,2,5.5|
4,3,9|
4,4,3.6|
4,5,4.5|
4,6,0.48|
4,7,9.4|
5,0,8.4|
5,1,2.2|
5,2,6.9|
5,3,3.2|
5,4,3.1|
5,5,5.2|
5,6,9.2|
5,7,9.7|
6,0,0.83|
6,1,7.6|
6,2,8.2|
6,3,1.2|
6,4,2.5|
6,5,8.6|
6,6,7.6|
6,7,0.79|
7,0,6.8|
7,1,8.9|
7,2,7.9|
7,3,5.2|
7,4,9.8|
7,5,7.4|
7,6,7.4|
7,7,7.6|
];
constraint_x5_y5=[
0,0,0.24|
0,1,3|
0,2,8.7|
0,3,6.6|
0,4,0.76|
0,5,9.7|
0,6,5.7|
0,7,4.5|
1,0,2.2|
1,1,5.8|
1,2,8.2|
1,3,2.1|
1,4,0.4|
1,5,0.67|
1,6,8.7|
1,7,7|
2,0,8.9|
2,1,5|
2,2,9.6|
2,3,2.6|
2,4,4.3|
2,5,2.2|
2,6,7.3|
2,7,8.8|
3,0,7.6|
3,1,4.8|
3,2,7.8|
3,3,2.8|
3,4,9.6|
3,5,5.6|
3,6,3.5|
3,7,4.9|
4,0,9.7|
4,1,2.2|
4,2,6.5|
4,3,8|
4,4,4.1|
4,5,6.6|
4,6,2.6|
4,7,3.2|
5,0,4.7|
5,1,9.2|
5,2,4.8|
5,3,7.9|
5,4,7.1|
5,5,2.7|
5,6,0.79|
5,7,8.4|
6,0,9.8|
6,1,4.1|
6,2,4.9|
6,3,1.8|
6,4,0.22|
6,5,7.9|
6,6,1.7|
6,7,0.28|
7,0,1.9|
7,1,2.7|
7,2,9.9|
7,3,9.1|
7,4,8.4|
7,5,3.2|
7,6,3.6|
7,7,3|
];
constraint_x6_y6=[
0,0,6.4|
0,1,3.6|
0,2,4.3|
0,3,2.5|
0,4,3.3|
0,5,8|
0,6,7.5|
0,7,3.7|
1,0,4.3|
1,1,4.2|
1,2,4.8|
1,3,3.6|
1,4,0.2|
1,5,4.9|
1,6,0.94|
1,7,8.2|
2,0,6.1|
2,1,6.4|
2,2,0.87|
2,3,7.2|
2,4,3.6|
2,5,2.7|
2,6,8|
2,7,6.9|
3,0,3.9|
3,1,9.3|
3,2,2.4|
3,3,7.2|
3,4,6.1|
3,5,3.4|
3,6,0.1|
3,7,1|
4,0,9.4|
4,1,6.9|
4,2,5.2|
4,3,2.3|
4,4,0.77|
4,5,1.7|
4,6,1.3|
4,7,9.7|
5,0,5.3|
5,1,8.8|
5,2,6.4|
5,3,4.7|
5,4,5.2|
5,5,9.1|
5,6,7|
5,7,9.4|
6,0,0.12|
6,1,1.9|
6,2,7.2|
6,3,6.3|
6,4,8|
6,5,6.9|
6,6,1.5|
6,7,9.5|
7,0,0.13|
7,1,0.88|
7,2,6.7|
7,3,2.6|
7,4,3.8|
7,5,6.8|
7,6,5.7|
7,7,7.6|
];
initial_distribution_y1=[0.08,0.16,0.16,0.077,0.13,0.14,0.16,0.098];
initial_distribution_y2=[0.19,0.16,0.22,0.015,0.056,0.051,0.28,0.031];
initial_distribution_y3=[0.011,0.23,0.3,0.22,0.091,0.0093,0.13,0.015];
initial_distribution_y4=[0.011,0.24,0.11,0.18,0.23,0.0027,0.15,0.077];
initial_distribution_y5=[0.061,0.16,0.16,0.0028,0.14,0.14,0.17,0.17];
initial_distribution_y6=[0.18,0.094,0.0043,0.075,0.13,0.17,0.16,0.18];
transition_y1=[
0.18,0.11,0.14,0.091,0.18,0.1,0.12,0.083|
0.14,0.19,0.083,0.059,0.13,0.19,0.16,0.052|
0.057,0.17,0.038,0.18,0.18,0.14,0.18,0.048|
0.21,0.02,0.0038,0.059,0.019,0.052,0.31,0.32|
0.17,0.23,0.056,0.22,0.0044,0.08,0.14,0.11|
0.16,0.087,0.078,0.19,0.15,0.071,0.15,0.12|
0.048,0.18,0.19,0.014,0.2,0.079,0.07,0.22|
0.064,0.021,0.005,0.11,0.27,0.22,0.06,0.26|
];
transition_y2=[
0.12,0.18,0.1,0.12,0.065,0.27,0.11,0.026|
0.16,0.17,0.17,0.024,0.15,0.085,0.17,0.068|
0.2,0.035,0.068,0.19,0.11,0.048,0.15,0.19|
0.23,0.03,0.068,0.23,0.098,0.14,0.1,0.097|
0.18,0.067,0.15,0.1,0.18,0.072,0.15,0.093|
0.044,0.22,0.18,0.062,0.064,0.081,0.14,0.22|
0.047,0.2,0.12,0.11,0.14,0.083,0.077,0.22|
0.057,0.14,0.23,0.2,0.033,0.11,0.17,0.061|
];
transition_y3=[
0.067,0.26,0.12,0.041,0.17,0.26,0.037,0.04|
0.092,0.01,0.15,0.11,0.19,0.18,0.12,0.14|
0.18,0.14,0.18,0.14,0.17,0.12,0.015,0.061|
0.031,0.13,0.063,0.14,0.046,0.14,0.21,0.24|
0.19,0.099,0.11,0.16,0.081,0.18,0.11,0.076|
0.11,0.18,0.048,0.17,0.23,0.15,0.065,0.036|
0.038,0.22,0.041,0.22,0.31,0.017,0.025,0.13|
0.18,0.059,0.084,0.0059,0.3,0.027,0.16,0.2|
];
transition_y4=[
0.028,0.1,0.25,0.087,0.19,0.12,0.05,0.18|
0.16,0.1,0.086,0.16,0.13,0.07,0.14,0.16|
0.17,0.35,0.074,0.021,0.088,0.0091,0.11,0.19|
0.04,0.17,0.073,0.2,0.2,0.16,0.032,0.12|
0.13,0.21,0.15,0.096,0.088,0.011,0.06,0.25|
0.014,0.073,0.24,0.024,0.21,0.16,0.034,0.25|
0.19,0.12,0.045,0.14,0.13,0.14,0.15,0.08|
0.26,0.16,0.056,0.13,0.02,0.14,0.035,0.2|
];
transition_y5=[
0.069,0.022,0.18,0.25,0.047,0.15,0.26,0.03|
0.076,0.19,0.04,0.14,0.046,0.24,0.21,0.063|
0.06,0.18,0.13,0.033,0.12,0.19,0.092,0.19|
0.059,0.19,0.16,0.026,0.2,0.15,0.14,0.077|
0.14,0.22,0.18,0.14,0.013,0.097,0.07,0.14|
0.054,0.069,0.15,0.31,0.2,0.14,0.063,0.014|
0.16,0.13,0.18,0.09,0.16,0.11,0.061,0.11|
0.17,0.12,0.023,0.15,0.12,0.18,0.15,0.11|
];
transition_y6=[
0.18,0.093,0.18,0.23,0.076,0.055,0.12,0.074|
0.2,0.16,0.095,0.16,0.16,0.0061,0.18,0.032|
0.045,0.12,0.29,0.14,0.12,0.13,0.054,0.11|
0.0051,0.14,0.04,0.14,0.16,0.27,0.043,0.2|
0.19,0.098,0.14,0.0066,0.18,0.088,0.13,0.18|
0.22,0.067,0.073,0.043,0.11,0.17,0.06,0.26|
0.25,0.063,0.048,0.16,0.034,0.097,0.16,0.18|
0.031,0.21,0.23,0.15,0.066,0.052,0.13,0.13|
];
